NAME : LPS-n25-m158
COMMENT : (Lartu-Peter-Santi Plot, instance 8958 out of 39200. 25 customers.)
TYPE : CVRP
DIMENSION : 25
EDGE_WEIGHT_TYPE : EUC_2D
CAPACITY : 77
NODE_COORD_SECTION
 1 49 64
 2 21 56
 3 61 55
 4 14 10
 5 2 59
 6 45 17
 7 56 5
 8 45 42
 9 34 2
 10 67 92
 11 62 28
 12 89 71
 13 46 44
 14 88 75
 15 65 40
 16 8 57
 17 40 73
 18 9 40
 19 46 7
 20 71 88
 21 58 68
 22 40 24
 23 8 43
 24 95 76
 25 16 33
DEMAND_SECTION
1 0
2 15
3 58
4 38
5 23
6 67
7 69
8 20
9 14
10 4
11 23
12 51
13 55
14 58
15 56
16 51
17 4
18 21
19 46
20 1
21 4
22 40
23 68
24 37
25 28
DEPOT_SECTION
 1
 -1
EOF
